NAME: name
TYPE: ATSP
COMMENT: comment
DIMENSION: 10
EDGE_WEIGHT_TYPE: EXPLICIT
EDGE_WEIGHT_FORMAT: FULL_MATRIX
EDGE_WEIGHT_SECTION
99999 43 
44 28 32 65 22 25 28 35 
71 99999 
33 45 61 21 49 51 49 44 
51 56 
99999 73 45 25 51 34 68 21 
64 37 
53 99999 50 44 66 27 62 36 
26 72 
24 44 99999 73 44 26 62 23 
41 35 
64 25 51 99999 53 33 57 71 
29 58 
24 54 22 51 99999 32 29 75 
57 49 
66 57 48 38 55 99999 74 47 
28 30 
68 58 26 54 64 40 99999 42 
61 73 
51 52 59 32 39 29 42 99999 
EOF
